NAME: tsp20_29
COMMENT: 20-tsp problem (Padberg/Rinaldi)
TYPE: TSP
DIMENSION: 20
EDGE_WEIGHT_TYPE : EUC_2D
NODE_COORD_SECTION
1.00 28.72 0.82
2.00 19.92 15.87
3.00 39.35 20.87
4.00 0.95 8.65
5.00 32.02 29.37
6.00 4.05 37.30
7.00 23.09 13.27
8.00 19.76 15.80
9.00 28.75 0.69
10.00 11.14 30.85
11.00 7.35 17.99
12.00 32.00 7.09
13.00 32.16 31.96
14.00 3.42 38.41
15.00 38.98 12.33
16.00 14.72 30.55
17.00 31.64 7.51
18.00 37.76 25.54
19.00 11.53 27.04
20.00 35.35 25.40
